1840.03
0 30 37 80 46 45 85 60 28 25 89 23 66 71 29 53 9 34 82 17 7 58 92 88 12 75 96 76 69 93 79 72 74 50 8 36 68 39 3 62 52 94 40 32 4 20 91 90 6 38 98 51 43 22 5 2 41 26 73 21 63 42 95 97 14 99 84 83 1 55 49 15 16 54 87 31 35 61 18 19 24 10 48 44 77 11 47 56 33 64 59 70 86 57 65 27 13 81 78 67
